
Gurobi 8.1.1 (win64, Python) logging started 06/04/19 10:17:39


Gurobi 8.1.1 (win64, Python) logging started 06/04/19 14:26:05

Academic license - for non-commercial use only

Gurobi 8.1.1 (win64, Python) logging started 06/04/19 15:49:34

Academic license - for non-commercial use only

Gurobi 8.1.1 (win64, Python) logging started 08/04/19 15:59:23

Academic license - for non-commercial use only

Gurobi 8.1.1 (win64, Python) logging started 08/04/19 16:07:00

Academic license - for non-commercial use only

Gurobi 8.1.1 (win64, Python) logging started 08/04/19 16:08:11

Academic license - for non-commercial use only

Gurobi 8.1.1 (win64, Python) logging started 08/04/19 16:08:48

Academic license - for non-commercial use only
